============================[ Problem Statistics ]=============================|                                                                             ||  Number of variables:          4242                                         ||  Number of clauses:           10087                                         ||  Parse time:                   0.48 s                                       ||                                                                             |============================[ Search Statistics ]==============================| Conflicts |          ORIGINAL         |          LEARNT          | Progress ||           |    Vars  Clauses Literals |    Limit  Clauses Lit/Cl |          |===============================================================================|       100 |    1591     6292   757973 |     2307      100     53 | 62.501 % ||       250 |    1591     6292   757973 |     2537      250     75 | 62.495 % |===============================================================================restarts              : 3conflicts             : 268            (374 /sec)decisions             : 535            (0.00 % random) (746 /sec)propagations          : 11790          (16444 /sec)conflict literals     : 20601          (94.84 % deleted)CPU time              : 0.717 sSATISFIABLE